
        $ From http://www.csplib.org/Problems/prob009/data/helmut.pdf
        $ Problem number 1
        $ Sequence length : 21
        language ESSENCE' 1.0
        letting sizemaster be 112
        letting sizes be sequence(2,4,6,7,8,9,11,15,16,17,18,19,24,25,27,29,33,35,37,42,50)
        